989521
139,70,66,38,206,126,146,42,198,30,177,162,117,48,73,156,82,134,161,35,228,132,154,111,93,107,34,86,49,150,77,129,80,39,26,168,101,61,54,27,178,204,74,191,36,33,214,160,183,100,67,8,90,21,25,88,106,195,95,165,115,143,210,144,136,29,63,4,155,43,219,175,16,224,46,222,5,103,223,202,128,152,32,20,216,3,169,89,185,149,170,108,141,87,227,145,11,186,37,102,179,157,218,221,120,127,105,140,40,201,53,17,55,174,52,99,215,23,189,104,91,65,98,76,81,148,203,171,211,212,220,166,180,172,147,60,130,123,84,122,24,181,79,1,114,131,78,94,113,197,199,121,190,72,112,97,41,159,225,176,50,151,208,118,69,125,85,135,217,205,83,187,56,173,28,58,194,192,75,10,57,138,51,92,167,229,44,124,213,153,64,163,13,119,109,9,200,7,110,47,18,133,226,45,196,142,164,193,12,96,14,2,188,184,68,22,158,207,137,59,15,116,19,182,209,6,31,62,0,71
